
Gurobi 9.1.2 (win64, Java) logging started Thu Nov 11 18:19:59 2021

Academic license - for non-commercial use only - expires 2022-10-30
Gurobi Optimizer version 9.1.2 build v9.1.2rc0 (win64)
Thread count: 6 physical cores, 12 logical processors, using up to 12 threads
Optimize a model with 30 rows, 200 columns and 400 nonzeros
Model fingerprint: 0x822706f7
Variable types: 0 continuous, 200 integer (200 binary)
Coefficient statistics:
  Matrix range     [1e+00, 9e+02]
  Objective range  [1e+01, 1e+03]
  Bounds range     [1e+00, 1e+00]
  RHS range        [1e+00, 9e+02]
Found heuristic solution: objective 5538.0000000
Presolve removed 5 rows and 106 columns
Presolve time: 0.00s
Presolved: 25 rows, 94 columns, 187 nonzeros
Variable types: 0 continuous, 94 integer (94 binary)
Presolve removed 3 rows and 15 columns
Presolved: 22 rows, 79 columns, 155 nonzeros


Root relaxation: objective 6.851782e+03, 41 iterations, 0.00 seconds

    Nodes    |    Current Node    |     Objective Bounds      |     Work
 Expl Unexpl |  Obj  Depth IntInf | Incumbent    BestBd   Gap | It/Node Time

     0     0 6851.78210    0    8 5538.00000 6851.78210  23.7%     -    0s
H    0     0                    6387.0000000 6851.78210  7.28%     -    0s
     0     0     cutoff    0      6387.00000 6387.00000  0.00%     -    0s

Cutting planes:
  Gomory: 3
  Cover: 4
  MIR: 3
  StrongCG: 3
  RLT: 1

Explored 1 nodes (81 simplex iterations) in 0.01 seconds
Thread count was 12 (of 12 available processors)

Solution count 2: 6387 5538 

Optimal solution found (tolerance 1.00e-12)
Best objective 6.387000000000e+03, best bound 6.387000000000e+03, gap 0.0000%
